p cnf 7230 16
6963 -6996 0
-6931 -6965 -7001 0
-4758 -6961 -6997 0
6931 -7002 0
4758 -6998 0
6963 -7000 0
-4760 -6996 -6999 0
7001 7002 0
6997 6998 0
6995 6996 0
-6963 -6995 0
6965 -7002 0
6999 7000 0
6961 -6998 0
4760 -7000 0
6967 -7004 0
